 Code  3133
 Dimension, Fixed Cost
   100        3000
 Facility, Client, Transportation Cost
     1        2           1
     1        4           4
     1       19           3
     1       20           1
     1       26           3
     1       37           1
     1       45           1
     1       61           2
     1       62           3
     1       83           4
     2        5           1
     2       17           3
     2       18           4
     2       24           4
     2       28           3
     2       36           0
     2       39           4
     2       70           1
     2       79           0
     2       83           0
     3        1           4
     3        8           1
     3       24           2
     3       30           0
     3       34           2
     3       36           4
     3       69           2
     3       75           2
     3       79           2
     3       84           2
     4        8           4
     4       12           0
     4       26           2
     4       27           2
     4       62           2
     4       72           0
     4       77           0
     4       79           0
     4       85           0
     4       87           3
     5        1           0
     5        3           2
     5        4           0
     5       23           4
     5       29           3
     5       31           4
     5       42           4
     5       67           3
     5       85           1
     5       87           2
     6        4           3
     6        7           0
     6       11           0
     6       12           1
     6       30           4
     6       37           1
     6       56           2
     6       66           4
     6       75           3
     6       80           0
     7       13           4
     7       25           0
     7       31           2
     7       34           4
     7       35           3
     7       44           0
     7       54           4
     7       74           2
     7       82           0
     7       90           3
     8        3           3
     8        6           1
     8       10           4
     8       14           2
     8       32           2
     8       34           3
     8       44           2
     8       45           1
     8       50           1
     8       52           4
     9       13           2
     9       18           1
     9       21           2
     9       34           1
     9       36           4
     9       52           3
     9       59           4
     9       60           3
     9       63           2
     9       65           3
    10        8           4
    10       21           1
    10       31           1
    10       35           0
    10       55           3
    10       57           1
    10       60           1
    10       65           0
    10       87           4
    10       90           0
    11       14           4
    11       36           2
    11       37           0
    11       44           1
    11       47           1
    11       51           0
    11       53           0
    11       61           0
    11       74           2
    11       87           1
    12        3           1
    12       15           0
    12       45           0
    12       47           2
    12       59           2
    12       67           4
    12       70           0
    12       92           4
    12       94           1
    12       98           3
    13       61           4
    13       64           1
    13       71           3
    13       72           1
    13       84           4
    13       89           1
    13       90           0
    13       93           3
    13       95           4
    13       96           2
    14        5           2
    14       15           4
    14       20           3
    14       27           1
    14       36           1
    14       42           2
    14       48           2
    14       54           2
    14       55           1
    14       68           0
    15       17           4
    15       18           2
    15       48           2
    15       72           4
    15       73           1
    15       82           2
    15       90           0
    15       92           1
    15       96           3
    15       98           1
    16       12           0
    16       19           4
    16       28           3
    16       29           4
    16       31           1
    16       37           4
    16       69           3
    16       73           2
    16       74           1
    16       77           4
    17       13           4
    17       30           1
    17       41           2
    17       45           4
    17       57           4
    17       68           2
    17       76           0
    17       85           0
    17       94           4
    17      100           3
    18       15           4
    18       26           3
    18       35           4
    18       47           0
    18       50           1
    18       51           0
    18       52           3
    18       70           3
    18       81           4
    18       83           4
    19        1           1
    19       11           4
    19       22           2
    19       24           3
    19       64           1
    19       71           4
    19       82           4
    19       83           4
    19       85           4
    19       90           4
    20        8           3
    20       36           0
    20       42           3
    20       80           4
    20       84           1
    20       86           0
    20       90           3
    20       93           4
    20       94           2
    20       95           3
    21       30           1
    21       37           3
    21       40           4
    21       52           4
    21       57           2
    21       61           3
    21       66           2
    21       67           2
    21       75           0
    21       84           3
    22       26           1
    22       29           4
    22       37           0
    22       73           1
    22       77           1
    22       87           2
    22       91           2
    22       94           3
    22       95           0
    22       97           0
    23       13           2
    23       24           0
    23       49           2
    23       63           3
    23       64           2
    23       86           4
    23       88           2
    23       94           3
    23       99           0
    23      100           3
    24       10           4
    24       17           4
    24       25           3
    24       43           4
    24       44           3
    24       48           1
    24       55           3
    24       58           4
    24       68           2
    24       69           1
    25        1           2
    25       25           1
    25       33           4
    25       41           3
    25       53           2
    25       57           3
    25       65           0
    25       67           4
    25       68           1
    25       69           1
    26       20           4
    26       22           0
    26       58           2
    26       66           4
    26       70           3
    26       81           4
    26       82           1
    26       88           1
    26       89           1
    26       94           0
    27        6           4
    27       17           1
    27       21           4
    27       23           3
    27       29           2
    27       55           2
    27       92           4
    27       98           1
    27       99           4
    27      100           4
    28       16           4
    28       27           2
    28       29           4
    28       44           3
    28       51           1
    28       57           1
    28       61           3
    28       62           3
    28       76           0
    28       78           0
    29        9           0
    29       13           1
    29       21           3
    29       24           3
    29       31           2
    29       33           0
    29       41           1
    29       42           2
    29       54           3
    29       59           4
    30        3           1
    30       16           4
    30       24           4
    30       27           2
    30       36           3
    30       38           0
    30       48           4
    30       54           2
    30       75           1
    30       78           3
    31        5           3
    31        9           3
    31       16           1
    31       17           1
    31       32           2
    31       39           2
    31       46           4
    31       50           2
    31       55           0
    31       57           1
    32        4           4
    32        7           0
    32       13           1
    32       18           3
    32       20           1
    32       51           2
    32       54           1
    32       64           2
    32       65           2
    32       72           1
    33        2           2
    33        6           4
    33       12           3
    33       14           3
    33       29           3
    33       32           1
    33       67           1
    33       75           0
    33       91           2
    33       92           4
    34        5           4
    34       17           3
    34       21           2
    34       29           4
    34       46           3
    34       50           0
    34       60           2
    34       65           4
    34       82           2
    34       91           1
    35        5           4
    35        8           1
    35       32           2
    35       42           1
    35       44           4
    35       45           3
    35       59           1
    35       67           2
    35       78           1
    35       79           1
    36       15           1
    36       22           1
    36       30           4
    36       34           4
    36       36           0
    36       38           3
    36       46           4
    36       56           0
    36       57           2
    36       66           1
    37        2           4
    37        6           4
    37       22           3
    37       41           0
    37       43           1
    37       48           4
    37       49           1
    37       58           2
    37       84           2
    37       85           2
    38        9           3
    38       10           1
    38       25           3
    38       47           2
    38       64           1
    38       66           1
    38       67           1
    38       88           1
    38       97           4
    38       98           2
    39        7           1
    39        9           0
    39       29           1
    39       48           4
    39       49           1
    39       54           4
    39       69           0
    39       78           3
    39       90           0
    39       92           2
    40       12           1
    40       38           4
    40       43           3
    40       53           4
    40       55           1
    40       68           2
    40       71           2
    40       72           4
    40       82           1
    40       86           3
    41        7           0
    41       20           1
    41       26           3
    41       48           3
    41       58           2
    41       74           1
    41       88           3
    41       91           2
    41       95           4
    41       97           2
    42        5           2
    42       13           0
    42       21           3
    42       23           2
    42       39           3
    42       60           3
    42       65           2
    42       72           3
    42       80           3
    42       94           4
    43        9           4
    43       23           2
    43       28           0
    43       30           2
    43       35           4
    43       36           2
    43       38           2
    43       46           4
    43       56           4
    43       65           1
    44        2           4
    44       11           1
    44       14           4
    44       17           3
    44       21           0
    44       22           0
    44       27           2
    44       31           4
    44       40           2
    44       42           4
    45        5           1
    45       12           0
    45       16           2
    45       30           1
    45       37           1
    45       39           3
    45       41           4
    45       54           4
    45       58           4
    45       74           2
    46        2           4
    46        3           4
    46        9           0
    46       25           3
    46       33           1
    46       40           3
    46       42           1
    46       43           0
    46       46           1
    46       75           0
    47        5           0
    47        7           1
    47       18           4
    47       20           2
    47       26           3
    47       28           4
    47       59           4
    47       66           1
    47       68           4
    47       80           2
    48       13           0
    48       14           0
    48       19           4
    48       38           4
    48       64           1
    48       88           2
    48       92           2
    48       97           4
    48       99           3
    48      100           3
    49       10           3
    49       18           4
    49       19           2
    49       40           2
    49       52           4
    49       64           4
    49       77           1
    49       93           2
    49       99           1
    49      100           2
    50       13           3
    50       23           2
    50       30           3
    50       32           0
    50       33           0
    50       43           2
    50       48           2
    50       58           0
    50       62           2
    50       67           4
    51        4           2
    51       24           4
    51       30           3
    51       33           0
    51       43           4
    51       51           2
    51       53           2
    51       54           2
    51       60           0
    51       64           1
    52        1           1
    52        6           4
    52       12           3
    52       25           2
    52       39           0
    52       46           0
    52       47           2
    52       88           1
    52       93           1
    52       96           2
    53        6           0
    53       16           3
    53       17           1
    53       19           1
    53       25           2
    53       28           1
    53       50           0
    53       53           1
    53       56           0
    53       60           0
    54        1           3
    54        7           4
    54       35           2
    54       61           2
    54       70           4
    54       71           2
    54       93           0
    54       94           4
    54       97           2
    54       98           0
    55       24           0
    55       47           3
    55       65           0
    55       78           3
    55       89           0
    55       91           1
    55       97           4
    55       98           0
    55       99           3
    55      100           0
    56       15           2
    56       22           3
    56       43           4
    56       49           3
    56       57           2
    56       63           4
    56       81           2
    56       88           1
    56       90           3
    56       93           3
    57        9           1
    57       12           0
    57       49           1
    57       52           0
    57       55           0
    57       58           0
    57       64           3
    57       72           1
    57       80           3
    57       81           1
    58        8           0
    58       18           4
    58       21           1
    58       29           0
    58       35           4
    58       44           4
    58       53           4
    58       76           3
    58       78           1
    58       84           1
    59       19           3
    59       33           3
    59       34           3
    59       37           0
    59       40           2
    59       45           2
    59       69           0
    59       81           2
    59       90           4
    59       92           0
    60        4           3
    60        8           1
    60        9           1
    60       31           0
    60       35           3
    60       45           1
    60       63           0
    60       73           3
    60       76           2
    60       78           0
    61       23           4
    61       26           3
    61       39           2
    61       47           2
    61       59           4
    61       79           3
    61       88           0
    61       93           1
    61       95           0
    61       96           3
    62        1           0
    62        6           3
    62       11           4
    62       39           4
    62       51           0
    62       55           3
    62       59           2
    62       62           3
    62       73           2
    62       78           0
    63       31           3
    63       32           0
    63       41           4
    63       60           1
    63       62           0
    63       63           1
    63       69           3
    63       71           3
    63       82           4
    63       86           0
    64       45           0
    64       70           3
    64       74           0
    64       77           4
    64       81           1
    64       88           0
    64       94           0
    64       95           3
    64       99           4
    64      100           0
    65        2           3
    65        7           0
    65        8           3
    65       12           1
    65       33           0
    65       37           4
    65       42           2
    65       47           2
    65       74           2
    65       86           4
    66       19           4
    66       22           2
    66       34           0
    66       37           1
    66       39           1
    66       43           4
    66       44           0
    66       53           0
    66       56           1
    66       57           3
    67       16           4
    67       17           1
    67       28           2
    67       44           1
    67       49           4
    67       54           0
    67       61           3
    67       69           3
    67       81           4
    67       85           3
    68       22           3
    68       26           3
    68       50           2
    68       72           1
    68       73           1
    68       76           4
    68       82           4
    68       83           1
    68       85           4
    68       86           2
    69        1           1
    69       10           0
    69       12           2
    69       27           0
    69       35           2
    69       43           0
    69       57           1
    69       77           3
    69       80           1
    69       86           0
    70        5           2
    70        6           0
    70       11           4
    70       17           1
    70       22           0
    70       26           0
    70       27           3
    70       38           4
    70       41           4
    70       53           0
    71       11           1
    71       29           2
    71       52           0
    71       63           3
    71       70           3
    71       71           1
    71       81           3
    71       87           3
    71       92           2
    71       97           1
    72        2           3
    72        9           1
    72       23           4
    72       34           1
    72       43           1
    72       68           0
    72       73           1
    72       75           2
    72       79           3
    72       85           3
    73        1           4
    73        4           2
    73       32           4
    73       35           0
    73       46           2
    73       50           1
    73       55           2
    73       66           3
    73       68           1
    73       85           4
    74        7           1
    74       27           2
    74       28           3
    74       34           4
    74       38           2
    74       40           0
    74       50           1
    74       53           0
    74       58           1
    74       67           2
    75        3           0
    75        8           1
    75       60           1
    75       70           3
    75       75           4
    75       76           3
    75       82           3
    75       86           1
    75       89           3
    75       96           4
    76        3           0
    76        4           0
    76        8           0
    76       32           4
    76       49           1
    76       52           1
    76       79           0
    76       80           1
    76       87           2
    76       91           4
    77       18           0
    77       24           0
    77       33           2
    77       70           2
    77       72           3
    77       76           3
    77       87           0
    77       93           0
    77       99           1
    77      100           4
    78       19           1
    78       40           3
    78       56           3
    78       58           0
    78       60           4
    78       84           3
    78       93           1
    78       96           1
    78       97           0
    78       98           2
    79       10           3
    79       18           1
    79       31           1
    79       47           0
    79       51           1
    79       59           0
    79       63           0
    79       74           2
    79       75           3
    79       87           2
    80        3           4
    80       10           3
    80       14           4
    80       52           0
    80       56           4
    80       79           2
    80       81           4
    80       84           1
    80       91           0
    80       92           1
    81        2           1
    81       20           2
    81       23           2
    81       27           3
    81       44           3
    81       71           1
    81       74           2
    81       87           4
    81       89           1
    81       90           2
    82        6           4
    82       15           1
    82       19           2
    82       33           1
    82       40           2
    82       45           0
    82       62           0
    82       73           1
    82       74           2
    82       76           2
    83        7           1
    83       26           3
    83       49           4
    83       73           3
    83       83           0
    83       89           0
    83       95           3
    83       96           4
    83       99           0
    83      100           3
    84       10           1
    84       40           1
    84       41           0
    84       45           2
    84       48           2
    84       49           1
    84       51           3
    84       62           4
    84       77           0
    84       79           0
    85       14           2
    85       15           0
    85       16           4
    85       31           0
    85       33           0
    85       35           2
    85       38           0
    85       51           3
    85       56           2
    85       78           2
    86        5           1
    86       14           4
    86       16           4
    86       20           3
    86       27           0
    86       46           1
    86       50           2
    86       62           0
    86       69           4
    86       76           0
    87       56           0
    87       61           1
    87       78           2
    87       84           0
    87       95           2
    87       96           4
    87       97           4
    87       98           0
    87       99           1
    87      100           3
    88       16           2
    88       21           3
    88       25           4
    88       63           2
    88       75           3
    88       77           3
    88       89           2
    88       91           2
    88       93           2
    88       94           2
    89        7           3
    89       25           3
    89       53           1
    89       60           4
    89       66           1
    89       83           2
    89       89           0
    89       92           2
    89       97           0
    89       98           4
    90       10           4
    90       52           0
    90       65           2
    90       72           0
    90       80           1
    90       81           1
    90       83           0
    90       85           0
    90       88           2
    90       98           2
    91        2           0
    91       25           4
    91       28           2
    91       64           3
    91       73           2
    91       84           0
    91       86           2
    91       95           2
    91       96           0
    91       99           2
    92        3           0
    92       11           1
    92       30           4
    92       32           4
    92       34           0
    92       41           1
    92       65           4
    92       68           4
    92       77           1
    92       89           3
    93       10           0
    93       15           4
    93       18           0
    93       23           2
    93       28           1
    93       38           0
    93       41           3
    93       54           1
    93       59           4
    93       77           3
    94       11           0
    94       16           1
    94       32           3
    94       40           4
    94       48           4
    94       70           0
    94       71           4
    94       79           0
    94       83           1
    94       91           4
    95       14           1
    95       38           1
    95       46           3
    95       55           1
    95       63           0
    95       76           4
    95       80           1
    95       86           0
    95       91           3
    95       95           2
    96        4           0
    96        9           3
    96       11           4
    96       15           1
    96       21           1
    96       39           1
    96       50           4
    96       63           1
    96       66           1
    96       80           0
    97       20           1
    97       23           1
    97       42           2
    97       47           0
    97       59           1
    97       61           4
    97       67           0
    97       68           0
    97       69           0
    97       71           1
    98        2           2
    98        3           0
    98       13           0
    98       19           3
    98       22           4
    98       24           4
    98       42           0
    98       51           0
    98       71           1
    98       83           4
    99        4           4
    99       20           2
    99       28           2
    99       49           3
    99       58           1
    99       61           2
    99       62           0
    99       82           1
    99       89           1
    99       96           2
   100        1           2
   100        6           2
   100       11           4
   100       14           0
   100       15           4
   100       36           2
   100       39           1
   100       46           4
   100       56           4
   100       66           4
